
Gurobi 11.0.3 (linux64) logging started Thu Nov 21 20:14:20 2024

Set parameter LogFile to value "/home/yihong/Coding/OR_SUC/SUC_results_bigM100000_thread4/case24_ieee_rts_theta0.1_epsilon0.025_gurobi_seed70000_num_gen100_N_WDR100_load_scaling_factor1_exact_T24quadra_cost.txt"
Set parameter TimeLimit to value 3600
Gurobi Optimizer version 11.0.3 build v11.0.3rc0 (linux64 - "Ubuntu 20.04.6 LTS")

CPU model: AMD EPYC 7532 32-Core Processor, instruction set [SSE2|AVX|AVX2]
Thread count: 64 physical cores, 128 logical processors, using up to 4 threads

Optimize a model with 52043 rows, 29961 columns and 712938 nonzeros
Model fingerprint: 0x8cfd4a05
Model has 2400 quadratic constraints
Variable types: 27461 continuous, 2500 integer (2500 binary)
Coefficient statistics:
  Matrix range     [1e-04, 1e+05]
  QMatrix range    [2e-03, 8e-03]
  QLMatrix range   [4e-02, 6e+01]
  Objective range  [1e+00, 1e+00]
  Bounds range     [1e+00, 1e+00]
  RHS range        [1e+00, 1e+05]
Presolve removed 42142 rows and 12982 columns
Presolve time: 0.23s
Presolved: 9901 rows, 16979 columns, 63473 nonzeros
Presolved model has 2400 quadratic constraint(s)
Variable types: 14519 continuous, 2460 integer (2460 binary)

Root relaxation: objective 3.880318e+04, 8013 iterations, 0.20 seconds (0.28 work units)

    Nodes    |    Current Node    |     Objective Bounds      |     Work
 Expl Unexpl |  Obj  Depth IntInf | Incumbent    BestBd   Gap | It/Node Time

     0     0 38803.1769    0    4          - 38803.1769      -     -    0s
     0     0 330011.071    0  728          - 330011.071      -     -    1s
     0     0 360721.270    0  631          - 360721.270      -     -    1s
     0     0 591153.014    0  640          - 591153.014      -     -    1s
     0     0 591205.106    0  529          - 591205.106      -     -    1s
     0     0 591780.383    0  435          - 591780.383      -     -    1s
     0     0 591782.047    0  435          - 591782.047      -     -    1s
     0     0 592043.581    0  416          - 592043.581      -     -    1s
     0     0 592047.646    0  416          - 592047.646      -     -    1s
     0     2 592047.646    0  416          - 592047.646      -     -    2s
H  472   251                    592673.10834 592118.070  0.09%  35.3    4s
*  472   251             153    592673.10834 592118.070  0.09%  35.3    4s

Cutting planes:
  Gomory: 6
  Implied bound: 314
  MIR: 109
  Flow cover: 106
  RLT: 1
  PSD: 4

Explored 489 nodes (39541 simplex iterations) in 5.19 seconds (6.66 work units)
Thread count was 4 (of 128 available processors)

Solution count 2: 592673 592673 

Optimal solution found (tolerance 1.00e-03)
Warning: max constraint violation (6.0748e-07) exceeds tolerance
Best objective 5.926731083423e+05, best bound 5.921180702115e+05, gap 0.0936%
